% number of games is 50
num = 50;
cap = 5;
refill = 2;
fun = [-19, -15, -4, 6, -5, 16, -3, -5, 17, -17, 13, -7, 9, -12, -3, 4, 16, 3, -1, 7, -8, -14, 14, -4, -18, 15, 11, 8, -2, 19, -2, 19, -11, -1, 9, -13, 1, -9, 7, 4, -10, -4, 8, -1, 20, 7, -2, 1, 12, -13];
